PARAMETER_FILE = even/even_uncomplete_graph_new/de/par/random89.par
PROBLEM_FILE = even/even_uncomplete_graph_new/de/mat/random89.tsp
Successes/Runs = 0/10
Cost.min = 763, Cost.avg = 763.00, Cost.max = 763
Gap.min = 0.0000%, Gap.avg = 0.0000%, Gap.max = 0.0000%
Trials.min = 1000, Trials.avg = 1000.0, Trials.max = 1000
Time.min = 0.53 sec., Time.avg = 0.56 sec., Time.max = 0.62 sec.
Time.total = 5.67 sec.
请按任意键继续. . . 
